0 0 0 0
0 1 0 0
0 2 0 0
0 3 0 0
0 4 0 3
0 5 0 3
0 6 0 8
0 7 0 9
0 8 0 7
0 9 0 3
0 10 0 9
0 11 0 9
0 12 0 11
0 13 0 10
0 14 0 15
0 15 0 35
0 16 0 58
0 17 0 27
0 18 0 24
0 19 0 25
0 20 0 23
0 21 0 7
0 22 0 34
0 23 0 22
0 24 0 3
0 25 0 43
0 26 0 41
0 27 0 66
0 28 0 15
0 29 0 39
0 30 0 11
0 31 0 51
0 32 0 15
0 33 0 18
0 34 0 64
0 35 0 53
0 36 0 35
0 37 0 29
0 38 0 25
0 39 0 18
0 40 0 35
0 41 0 61
0 42 0 80
0 43 0 57
0 44 0 48
0 45 0 25
0 46 0 30
0 47 0 39
0 48 0 41
0 49 0 88
0 50 0 76
0 51 0 57
0 52 0 39
0 53 0 43
0 54 0 71
0 55 0 21
0 56 0 38
0 57 0 11
0 58 0 79
0 59 0 82
0 60 0 41
0 61 0 48
0 62 0 110
0 63 0 48
0 64 0 48
0 65 0 53
0 66 0 72
0 67 0 66
0 68 0 37
0 69 0 67
0 70 0 57
0 71 0 110
0 72 0 70
0 73 0 102
0 74 0 49
0 75 0 65
0 76 0 70
0 77 0 72
0 78 0 88
0 79 0 93
0 80 0 81
0 81 0 101
0 82 0 81
0 83 0 81
0 84 0 101
0 85 0 115
0 86 0 60
0 87 0 53
0 88 0 101
0 89 0 87
0 90 0 90
0 91 0 64
0 92 0 92
0 93 0 100
0 94 0 117
0 95 0 95
0 96 0 93
0 97 0 118
0 98 0 107
0 99 0 111
0 100 0 110
0 101 0 111
0 102 0 82
0 103 0 101
0 104 0 90
0 105 0 110
0 106 0 118
0 107 0 116
0 108 0 110
0 109 0 118
0 110 0 118
0 111 0 121
0 112 0 123
0 113 0 127
0 114 0 100
0 115 0 132
0 116 0 123
0 117 0 127
0 118 0 132
0 119 0 133
0 120 0 132
0 121 0 140
